% seed = 9926982

mint = 41;
% maxt = 114;

nActs = 22;
dur = [0,8,8,2,1,3,9,6,10,10,4,8,3,7,9,2,4,1,6,9,4,0];

nSkills = 4;
sreq = [| 0,0,0,0,
	| 1,0,2,1,
	| 3,2,0,3,
	| 2,0,3,3,
	| 0,3,1,2,
	| 0,2,2,2,
	| 1,2,0,2,
	| 2,2,0,1,
	| 1,3,0,3,
	| 1,2,0,3,
	| 0,2,1,1,
	| 1,0,2,1,
	| 1,1,3,0,
	| 3,2,0,3,
	| 0,2,3,3,
	| 1,3,2,0,
	| 1,2,2,0,
	| 2,0,3,3,
	| 0,3,3,2,
	| 1,0,2,1,
	| 1,2,2,0,
	| 0,0,0,0, |];

nResources = 10;
mastery = [| true,false,true,true,
	| true,false,false,false,
	| false,false,false,true,
	| true,true,true,false,
	| true,true,false,true,
	| false,true,false,false,
	| false,false,true,false,
	| true,true,false,true,
	| true,false,false,true,
	| true,false,true,true, |];

nPrecs = 37;
pred = [1,1,1,2,2,2,3,3,4,4,5,5,5,6,7,7,7,8,9,9,10,11,11,12,12,13,14,14,14,15,15,16,17,18,19,20,21];
succ = [2,3,4,17,18,13,9,14,20,5,6,7,8,16,10,11,19,9,11,15,18,12,13,18,16,21,20,15,16,17,19,17,21,21,22,22,22];

nUnrels = 87;
unpred = [2,2,2,2,2,2,2,2,2,2,2,2,2,2,2,3,3,3,3,3,3,4,5,5,6,6,6,6,6,6,6,6,6,6,6,6,7,7,7,7,7,8,8,8,9,9,9,10,10,10,10,10,10,10,10,10,11,11,11,11,12,12,12,12,12,13,13,13,13,13,13,13,14,15,15,15,16,16,16,17,17,17,18,18,19,19,20];
unsucc = [3,4,5,6,7,8,9,10,11,12,14,15,16,19,20,4,5,6,7,8,10,14,14,20,7,8,9,10,11,12,13,14,15,18,19,20,8,9,14,15,20,10,14,20,10,14,20,11,12,13,14,15,16,17,19,20,14,15,19,20,13,14,15,19,20,14,15,16,17,18,19,20,18,16,18,20,18,19,20,18,19,20,19,20,20,21,21];

USEFUL_RES = [{},
	{1,2,3,4,5,7,8,9,10},
	{1,2,3,4,5,6,8,9,10},
	{1,2,3,4,5,7,8,9,10},
	{1,3,4,5,6,7,8,9,10},
	{1,3,4,5,6,7,8,9,10},
	{1,2,3,4,5,6,8,9,10},
	{1,2,3,4,5,6,8,9,10},
	{1,2,3,4,5,6,8,9,10},
	{1,2,3,4,5,6,8,9,10},
	{1,3,4,5,6,7,8,9,10},
	{1,2,3,4,5,7,8,9,10},
	{1,2,4,5,6,7,8,9,10},
	{1,2,3,4,5,6,8,9,10},
	{1,3,4,5,6,7,8,9,10},
	{1,2,4,5,6,7,8,9,10},
	{1,2,4,5,6,7,8,9,10},
	{1,2,3,4,5,7,8,9,10},
	{1,3,4,5,6,7,8,9,10},
	{1,2,3,4,5,7,8,9,10},
	{1,2,4,5,6,7,8,9,10},
	{}];

POTENTIAL_ACT = [{2,3,4,5,6,7,8,9,10,11,12,13,14,15,16,17,18,19,20,21},
	{2,3,4,7,8,9,10,12,13,14,16,17,18,20,21},
	{2,3,4,5,6,7,8,9,10,11,12,14,15,18,19,20},
	{2,3,4,5,6,7,8,9,10,11,12,13,14,15,16,17,18,19,20,21},
	{2,3,4,5,6,7,8,9,10,11,12,13,14,15,16,17,18,19,20,21},
	{3,5,6,7,8,9,10,11,13,14,15,16,17,19,21},
	{2,4,5,6,11,12,13,15,16,17,18,19,20,21},
	{2,3,4,5,6,7,8,9,10,11,12,13,14,15,16,17,18,19,20,21},
	{2,3,4,5,6,7,8,9,10,11,12,13,14,15,16,17,18,19,20,21},
	{2,3,4,5,6,7,8,9,10,11,12,13,14,15,16,17,18,19,20,21}];
